(declare-fun ExpandObjSwitcher () Real)
(declare-fun CreateAsClass () Bool)
(declare-fun Constructed_Argument_t () String)
(assert (not (= ExpandObjSwitcher 0.0)))
(assert (not (= ExpandObjSwitcher 1.0)))
(assert (not (= ExpandObjSwitcher 2.0)))
(assert (not (= ExpandObjSwitcher 3.0)))
(assert (not (= ExpandObjSwitcher 4.0)))
(assert (not (= ExpandObjSwitcher 5.0)))
(assert (not (= ExpandObjSwitcher 6.0)))
(assert (not (= ExpandObjSwitcher 7.0)))
(assert (not (= ExpandObjSwitcher 8.0)))
(assert (not (= ExpandObjSwitcher 9.0)))
(assert (= ExpandObjSwitcher 10.0))
(assert (not CreateAsClass))
(assert (not (= Constructed_Argument_t "string")))
(assert (not (= Constructed_Argument_t "number")))
(assert (not (= Constructed_Argument_t "boolean")))
(assert (not (= Constructed_Argument_t "object")))
(assert (not (= Constructed_Argument_t "array_number")))
(assert (not (= Constructed_Argument_t "array_string")))
(assert (= Constructed_Argument_t "array_bool"))
(check-sat)
